width = 17;

n_circuits = 12;

circuit_x = array1d(1..12, [3, 3, 3, 3, 3, 3, 3, 4, 4, 4, 7, 7]);

circuit_y = array1d(1..12, [3, 4, 5, 6, 7, 8, 9, 3, 8, 14, 3, 6]);

opt_height = 17;

max_y = 14;

